data/solutions/recovery/wellformed/moderate/binding/wellformed_moderate_instance64/4.sol
Elapsed time: 0.02
Upper bound: 4991.0
Planning weighted value: 131836.0
C[0]=4991.0
C[1]=4965.0
C[2]=4792.0
C[3]=4696.0
C[4]=0.0
y[0]=0
y[1]=3
y[2]=1
y[3]=2
y[4]=3
y[5]=3
y[6]=0
y[7]=3
y[8]=1
y[9]=3
y[10]=1
y[11]=1
y[12]=2
y[13]=3
y[14]=1
y[15]=2
y[16]=2
y[17]=3
y[18]=1
y[19]=2
y[20]=2
y[21]=1
y[22]=3
y[23]=0
y[24]=1
y[25]=0
y[26]=3
y[27]=1
y[28]=2
y[29]=3
y[30]=3
y[31]=2
y[32]=2
y[33]=0
y[34]=3
y[35]=3
y[36]=3
y[37]=3
y[38]=0
y[39]=2
y[40]=0
