data/solutions/recovery/wellformed/moderate/binding/wellformed_moderate_instance64/4.log

Log started (V12.6.3.0) Fri Apr 20 17:49:33 2018

New value for default parallel thread count: 1

Problem '/tmp/tmpyFkAx3.pyomo.lp' read.
Read time = 0.00 sec. (0.08 ticks)

Problem name         : /tmp/tmpyFkAx3.pyomo.lp
Objective sense      : Minimize
Variables            :     212  [Nneg: 1,  Binary: 205,  General Integer: 6]
Objective nonzeros   :       1
Linear constraints   :      94  [Less: 46,  Equal: 48]
  Nonzeros           :    5695
  RHS nonzeros       :      42

Variables            : Min LB: 0.000000         Max UB: 1.000000       
Objective nonzeros   : Min   : 1.000000         Max   : 1.000000       
Linear constraints   :
  Nonzeros           : Min   : 1.000000         Max   : 1963.000       
  RHS nonzeros       : Min   : 1.000000         Max   : 1.000000       
Tried aggregator 2 times.
MIP Presolve eliminated 78 rows and 175 columns.
Aggregator did 4 substitutions.
Reduced MIP has 12 rows, 33 columns, and 68 nonzeros.
Reduced MIP has 32 binaries, 1 generals, 0 SOSs, and 0 indicators.
Presolve time = 0.00 sec. (0.51 ticks)
Found incumbent of value 8849.000000 after 0.00 sec. (0.67 ticks)
Probing time = 0.00 sec. (0.02 ticks)
Cover probing fixed 0 vars, tightened 1 bounds.
Tried aggregator 1 time.
Reduced MIP has 12 rows, 33 columns, and 68 nonzeros.
Reduced MIP has 32 binaries, 1 generals, 0 SOSs, and 0 indicators.
Presolve time = 0.00 sec. (0.04 ticks)
Probing time = 0.00 sec. (0.02 ticks)
Clique table members: 8.
MIP emphasis: balance optimality and feasibility.
MIP search method: dynamic search.
Parallel mode: none, using 1 thread.
Root relaxation solution time = 0.00 sec. (0.03 ticks)

        Nodes                                         Cuts/
   Node  Left     Objective  IInf  Best Integer    Best Bound    ItCnt     Gap

*     0+    0                         8849.0000     4991.0000            43.60%
      0     0     4991.0000     5     8849.0000     4991.0000        4   43.60%
*     0+    0                         4991.0000     4991.0000             0.00%
      0     0        cutoff           4991.0000     4991.0000        4    0.00%
Elapsed time = 0.00 sec. (0.83 ticks, tree = 0.01 MB, solutions = 2)

Root node processing (before b&c):
  Real time             =    0.00 sec. (0.84 ticks)
Sequential b&c:
  Real time             =    0.00 sec. (0.00 ticks)
                          ------------
Total (root+branch&cut) =    0.00 sec. (0.84 ticks)

Solution pool: 2 solutions saved.

MIP - Integer optimal solution:  Objective =  4.9910000000e+03
Solution time =    0.00 sec.  Iterations = 4  Nodes = 0
Deterministic time = 0.84 ticks  (407.73 ticks/sec)


Incumbent solution written to file '/tmp/tmpU5tkzQ.cplex.sol'.

Log started (V12.6.3.0) Fri Apr 20 17:52:37 2018

New value for default parallel thread count: 1

Problem '/tmp/tmpGiXgfE.pyomo.lp' read.
Read time = 0.00 sec. (0.08 ticks)

Problem name         : /tmp/tmpGiXgfE.pyomo.lp
Objective sense      : Minimize
Variables            :     212  [Nneg: 1,  Binary: 205,  General Integer: 6]
Objective nonzeros   :       1
Linear constraints   :      94  [Less: 46,  Equal: 48]
  Nonzeros           :    5695
  RHS nonzeros       :      42

Variables            : Min LB: 0.000000         Max UB: 1.000000       
Objective nonzeros   : Min   : 1.000000         Max   : 1.000000       
Linear constraints   :
  Nonzeros           : Min   : 1.000000         Max   : 1963.000       
  RHS nonzeros       : Min   : 1.000000         Max   : 1.000000       
Tried aggregator 2 times.
MIP Presolve eliminated 78 rows and 175 columns.
Aggregator did 4 substitutions.
Reduced MIP has 12 rows, 33 columns, and 68 nonzeros.
Reduced MIP has 32 binaries, 1 generals, 0 SOSs, and 0 indicators.
Presolve time = 0.00 sec. (0.51 ticks)
Found incumbent of value 8849.000000 after 0.00 sec. (0.67 ticks)
Probing time = 0.00 sec. (0.02 ticks)
Cover probing fixed 0 vars, tightened 1 bounds.
Tried aggregator 1 time.
Reduced MIP has 12 rows, 33 columns, and 68 nonzeros.
Reduced MIP has 32 binaries, 1 generals, 0 SOSs, and 0 indicators.
Presolve time = 0.00 sec. (0.04 ticks)
Probing time = 0.00 sec. (0.02 ticks)
Clique table members: 8.
MIP emphasis: balance optimality and feasibility.
MIP search method: dynamic search.
Parallel mode: none, using 1 thread.
Root relaxation solution time = 0.00 sec. (0.03 ticks)

        Nodes                                         Cuts/
   Node  Left     Objective  IInf  Best Integer    Best Bound    ItCnt     Gap

*     0+    0                         8849.0000     4991.0000            43.60%
      0     0     4991.0000     5     8849.0000     4991.0000        4   43.60%
*     0+    0                         4991.0000     4991.0000             0.00%
      0     0        cutoff           4991.0000     4991.0000        4    0.00%
Elapsed time = 0.00 sec. (0.83 ticks, tree = 0.01 MB, solutions = 2)

Root node processing (before b&c):
  Real time             =    0.00 sec. (0.84 ticks)
Sequential b&c:
  Real time             =    0.00 sec. (0.00 ticks)
                          ------------
Total (root+branch&cut) =    0.00 sec. (0.84 ticks)

Solution pool: 2 solutions saved.

MIP - Integer optimal solution:  Objective =  4.9910000000e+03
Solution time =    0.00 sec.  Iterations = 4  Nodes = 0
Deterministic time = 0.84 ticks  (338.51 ticks/sec)


Incumbent solution written to file '/tmp/tmpAXbkrz.cplex.sol'.
